data;


param d:= 100;
param r:=5;
param p:=0.700000;
param M:=1000;
param U:=
         1         1        3.774393e-02
         2         1        4.080212e-01
         3         1       -1.849125e+00
         4         1        1.443871e+00
         5         1        6.702208e-01
         6         1        7.285755e-01
         7         1       -4.427796e-01
         8         1        2.542634e-01
         9         1       -3.747120e-01
        10         1       -4.472503e-01
        11         1        2.162556e-01
        12         1        8.561153e-01
        13         1       -1.933672e+00
        14         1       -5.961113e-01
        15         1       -1.556462e+00
        16         1        1.192961e+00
        17         1        5.764214e-01
        18         1        2.078993e-02
        19         1       -1.163377e+00
        20         1       -2.209639e-01
        21         1       -1.987453e+00
        22         1        8.268559e-01
        23         1        4.186360e-01
        24         1        1.440754e+00
        25         1       -3.939769e-01
        26         1        5.405822e-01
        27         1        1.163718e+00
        28         1       -1.235895e+00
        29         1        8.102238e-02
        30         1       -3.037519e-01
        31         1       -1.122577e-01
        32         1        5.153129e-01
        33         1       -8.578968e-01
        34         1       -6.210784e-01
        35         1        1.454910e-01
        36         1        5.685566e-01
        37         1       -1.425393e+00
        38         1        6.734808e-01
        39         1       -5.105953e-02
        40         1       -1.413979e+00
        41         1        9.169485e-01
        42         1       -1.925856e+00
        43         1        1.141149e+00
        44         1       -8.980833e-01
        45         1        1.286194e+00
        46         1        1.843542e+00
        47         1        1.095038e+00
        48         1       -1.451763e+00
        49         1       -7.591073e-01
        50         1        3.583447e-01
        51         1        8.392914e-02
        52         1       -1.530257e+00
        53         1        1.556683e-01
        54         1       -1.288550e+00
        55         1        7.330430e-01
        56         1       -3.224703e-01
        57         1        1.191457e+00
        58         1       -1.452366e+00
        59         1       -6.005614e-01
        60         1        1.278365e+00
        61         1       -5.281114e-01
        62         1       -1.232987e-01
        63         1       -8.780489e-01
        64         1       -1.120687e-01
        65         1        1.174176e+00
        66         1        2.828727e-01
        67         1        4.546923e-02
        68         1        4.689898e-01
        69         1       -5.940061e-01
        70         1        8.074566e-01
        71         1        4.893611e-01
        72         1        2.371857e+00
        73         1       -1.049910e+00
        74         1       -1.467256e+00
        75         1        5.132471e-01
        76         1       -4.483634e-01
        77         1        1.312277e-01
        78         1        6.433769e-03
        79         1       -6.759619e-02
        80         1       -2.277481e-02
        81         1       -3.211174e-01
        82         1       -6.640513e-02
        83         1       -4.976281e-01
        84         1       -1.619408e+00
        85         1       -1.539314e+00
        86         1       -9.167146e-01
        87         1       -8.659741e-01
        88         1       -9.815443e-01
        89         1       -2.110346e+00
        90         1        4.261735e-01
        91         1        1.082360e+00
        92         1       -5.584816e-01
        93         1       -1.451715e+00
        94         1       -1.168213e+00
        95         1        9.597702e-01
        96         1       -1.423217e-01
        97         1       -8.960506e-01
        98         1        3.221844e-01
        99         1        2.428756e+00
       100         1        1.067832e+00
         1         2        1.648721e+00
         2         2       -1.415232e-03
         3         2        1.030529e+00
         4         2       -3.142212e-02
         5         2       -1.200854e+00
         6         2       -2.033761e+00
         7         2       -6.806817e-01
         8         2       -7.089933e-02
         9         2        1.178672e+00
        10         2        3.995669e-01
        11         2        1.187411e-01
        12         2        6.811524e-01
        13         2       -5.236480e-01
        14         2        3.375587e-01
        15         2        1.110397e-01
        16         2        4.468883e-01
        17         2        1.216839e+00
        18         2        4.777656e-01
        19         2       -1.949382e+00
        20         2       -4.018099e-01
        21         2        1.301789e-01
        22         2       -4.498773e-01
        23         2       -1.276629e+00
        24         2       -2.199663e+00
        25         2        2.471520e-01
        26         2       -2.783542e-01
        27         2        1.382470e+00
        28         2       -4.811809e-01
        29         2       -8.400733e-02
        30         2        1.126441e+00
        31         2       -1.059611e+00
        32         2       -1.734547e+00
        33         2       -1.479562e+00
        34         2       -2.647728e+00
        35         2       -6.125498e-01
        36         2       -2.059594e+00
        37         2       -6.064133e-01
        38         2        9.710439e-01
        39         2       -1.733367e-02
        40         2        2.392863e-01
        41         2        1.429937e-01
        42         2       -8.534352e-02
        43         2        1.535103e-01
        44         2       -1.438621e-01
        45         2        1.089526e+00
        46         2       -9.405039e-02
        47         2        1.696187e+00
        48         2        7.659146e-02
        49         2        2.376428e-01
        50         2       -7.863821e-01
        51         2       -6.011140e-01
        52         2       -2.931732e+00
        53         2        1.177022e-01
        54         2        9.621889e-01
        55         2       -6.718978e-01
        56         2       -1.100559e+00
        57         2       -1.396477e+00
        58         2        4.718547e-01
        59         2       -7.791798e-01
        60         2        1.431389e-01
        61         2       -7.493818e-01
        62         2        6.449835e-01
        63         2        1.133699e-01
        64         2       -4.212112e-01
        65         2        1.355238e+00
        66         2        9.370759e-01
        67         2        9.921163e-01
        68         2        4.735475e-01
        69         2        1.646453e-01
        70         2        1.158761e+00
        71         2        4.434832e-01
        72         2       -2.411823e-01
        73         2       -9.655213e-01
        74         2        5.040642e-01
        75         2        2.206023e-01
        76         2       -8.658372e-01
        77         2       -1.694448e-01
        78         2        1.338621e-01
        79         2       -2.093268e-02
        80         2        2.117083e-02
        81         2       -4.697284e-01
        82         2        3.754291e-01
        83         2        7.560938e-01
        84         2       -1.060414e+00
        85         2       -4.989866e-01
        86         2        7.714207e-01
        87         2        5.845778e-01
        88         2       -2.535498e+00
        89         2       -6.115607e-01
        90         2       -1.796177e+00
        91         2        7.236534e-01
        92         2        1.727156e+00
        93         2        9.371760e-02
        94         2        1.874958e+00
        95         2       -9.320705e-01
        96         2       -2.015639e-01
        97         2        8.944499e-01
        98         2       -3.839556e-01
        99         2        1.620938e+00
       100         2       -3.871943e-01
         1         3       -1.331020e+00
         2         3        9.629527e-02
         3         3       -8.714894e-01
         4         3       -6.121325e-01
         5         3       -1.384098e+00
         6         3        1.489588e+00
         7         3       -1.107438e+00
         8         3        2.154047e-01
         9         3       -8.415486e-01
        10         3       -9.300725e-01
        11         3        5.207237e-01
        12         3       -5.034601e-01
        13         3        4.444998e-01
        14         3       -3.593193e-01
        15         3       -2.298067e-01
        16         3       -2.634891e-01
        17         3       -9.539375e-01
        18         3       -7.490639e-01
        19         3        4.915582e-01
        20         3        4.808883e-01
        21         3        2.490556e+00
        22         3        2.112210e+00
        23         3        3.054461e-01
        24         3       -1.369635e+00
        25         3       -1.590820e+00
        26         3        2.642571e+00
        27         3       -1.054406e+00
        28         3       -4.986631e-01
        29         3        9.690628e-01
        30         3       -5.880303e-01
        31         3        1.585147e-01
        32         3       -6.897793e-01
        33         3       -7.142991e-01
        34         3        9.822772e-01
        35         3        3.532267e-01
        36         3        1.324147e-01
        37         3        3.705816e-01
        38         3       -9.759168e-01
        39         3       -1.123656e+00
        40         3        6.619863e-01
        41         3        2.882948e-01
        42         3        4.222245e-01
        43         3        1.058204e+00
        44         3       -3.153604e+00
        45         3       -2.073818e+00
        46         3        1.255059e+00
        47         3        4.788825e-01
        48         3        6.346169e-01
        49         3        1.392776e-01
        50         3       -9.518367e-01
        51         3        1.333209e+00
        52         3       -5.221740e-01
        53         3       -5.584851e-01
        54         3       -1.712011e-01
        55         3        1.832636e+00
        56         3        4.232927e-01
        57         3       -1.246867e+00
        58         3        7.126975e-01
        59         3        3.213058e-01
        60         3       -3.509027e-01
        61         3       -1.426822e-01
        62         3       -1.578984e+00
        63         3       -6.203399e-01
        64         3        1.168829e+00
        65         3       -7.659117e-01
        66         3       -1.163913e+00
        67         3       -1.277420e+00
        68         3       -4.775537e-01
        69         3        9.768833e-01
        70         3        3.060631e-01
        71         3       -7.571169e-01
        72         3       -1.279598e+00
        73         3        8.109073e-01
        74         3        2.392079e+00
        75         3        3.437632e-01
        76         3       -6.804433e-01
        77         3        5.937326e-01
        78         3        6.744291e-01
        79         3       -1.531724e+00
        80         3        1.380962e-01
        81         3        6.249358e-01
        82         3        1.891767e-01
        83         3       -1.624730e+00
        84         3        1.155357e-01
        85         3       -2.379897e-01
        86         3        1.021951e+00
        87         3       -7.935757e-01
        88         3       -1.875840e+00
        89         3       -3.608764e-01
        90         3       -8.852332e-01
        91         3       -1.233382e+00
        92         3       -2.255201e-01
        93         3        1.961878e+00
        94         3        8.537946e-01
        95         3        6.336288e-01
        96         3        7.250223e-01
        97         3        3.835873e-01
        98         3       -2.957435e-01
        99         3       -1.859736e-01
       100         3        1.096365e+00
         1         4       -6.093303e-01
         2         4        3.004786e-01
         3         4        2.452873e-01
         4         4        1.409755e-01
         5         4       -4.380702e-01
         6         4       -9.080729e-01
         7         4       -5.203776e-01
         8         4       -5.107543e-02
         9         4       -4.356510e-01
        10         4       -1.143482e-03
        11         4        2.462126e-01
        12         4        8.623593e-01
        13         4        1.189919e+00
        14         4        2.175973e+00
        15         4        5.489972e-01
        16         4        2.354005e+00
        17         4        2.613201e-01
        18         4       -7.590320e-01
        19         4        6.892917e-01
        20         4       -6.868163e-01
        21         4        1.123585e-01
        22         4        1.136604e+00
        23         4       -2.573101e-01
        24         4       -6.363588e-01
        25         4        4.750454e-01
        26         4        4.519975e-01
        27         4        1.766183e+00
        28         4       -1.057138e+00
        29         4       -7.636418e-01
        30         4        6.035406e-01
        31         4       -5.940852e-01
        32         4       -6.349663e-01
        33         4       -4.957638e-01
        34         4       -2.374004e-01
        35         4        4.314391e-01
        36         4       -1.444502e+00
        37         4       -6.844854e-01
        38         4       -4.853554e-01
        39         4       -5.733974e-01
        40         4        1.084785e+00
        41         4       -5.732927e-01
        42         4        1.165429e+00
        43         4       -1.637510e+00
        44         4        8.261490e-01
        45         4       -1.430804e+00
        46         4        1.889447e+00
        47         4        1.109160e+00
        48         4        7.248818e-01
        49         4       -5.377953e-01
        50         4       -3.265575e-01
        51         4       -8.038829e-01
        52         4       -1.477267e+00
        53         4       -7.666624e-01
        54         4       -1.630686e+00
        55         4       -2.124496e+00
        56         4        3.603838e-03
        57         4       -9.245552e-02
        58         4       -4.943207e-01
        59         4       -1.023948e-01
        60         4       -2.679603e-01
        61         4       -5.662176e-01
        62         4        2.835496e-01
        63         4       -2.366934e+00
        64         4       -1.590148e+00
        65         4        4.022578e-01
        66         4       -1.276044e+00
        67         4       -7.408808e-01
        68         4       -9.670060e-01
        69         4       -1.234798e+00
        70         4       -5.219793e-01
        71         4        1.010015e+00
        72         4       -1.365405e+00
        73         4       -7.120474e-01
        74         4        8.430704e-02
        75         4        1.189459e+00
        76         4       -1.484887e+00
        77         4        1.055241e+00
        78         4       -3.954183e-01
        79         4        1.764958e+00
        80         4        5.485242e-01
        81         4        9.974199e-01
        82         4        2.052335e+00
        83         4        7.599871e-02
        84         4       -1.352504e+00
        85         4        9.068775e-01
        86         4       -5.776518e-01
        87         4        1.307446e+00
        88         4       -1.033168e+00
        89         4        7.176356e-01
        90         4        1.859239e-01
        91         4        6.752479e-01
        92         4       -7.647379e-01
        93         4        1.790516e+00
        94         4        8.238491e-02
        95         4        1.070302e+00
        96         4        1.078055e+00
        97         4        1.376674e+00
        98         4        1.715809e+00
        99         4        1.514318e+00
       100         4        1.868628e+00
         1         5       -6.569738e-01
         2         5       -5.041388e-02
         3         5        8.555381e-01
         4         5        7.767455e-01
         5         5        2.486603e-01
         6         5       -1.248735e+00
         7         5        1.131065e+00
         8         5        9.647225e-01
         9         5       -8.197709e-01
        10         5       -5.511283e-01
        11         5       -1.413973e-01
        12         5        3.397668e-01
        13         5        3.061386e+00
        14         5       -2.286015e+00
        15         5        7.711885e-01
        16         5       -9.593398e-01
        17         5       -1.016710e+00
        18         5       -9.135618e-01
        19         5        4.998580e-01
        20         5       -1.003944e+00
        21         5        7.170161e-01
        22         5       -1.939377e+00
        23         5        1.129604e+00
        24         5       -7.798242e-03
        25         5       -9.021870e-01
        26         5       -1.965358e+00
        27         5       -1.655210e+00
        28         5       -1.266604e+00
        29         5       -7.083299e-02
        30         5        6.595244e-01
        31         5       -2.224614e-01
        32         5       -8.411059e-01
        33         5       -5.730265e-01
        34         5       -2.166483e-01
        35         5       -5.896503e-01
        36         5        1.882479e+00
        37         5        5.177411e-01
        38         5        8.444797e-02
        39         5       -2.168996e+00
        40         5       -1.659958e+00
        41         5        8.563455e-01
        42         5        5.910631e-01
        43         5       -3.541919e-01
        44         5       -5.598052e-02
        45         5       -6.120326e-01
        46         5        1.055207e+00
        47         5       -1.813499e-01
        48         5        2.144255e+00
        49         5        4.821140e-01
        50         5        1.446013e+00
        51         5       -1.039071e+00
        52         5        2.093618e-01
        53         5        5.244788e-01
        54         5       -1.260208e+00
        55         5       -2.545314e+00
        56         5        1.337891e+00
        57         5        1.700226e+00
        58         5        3.324911e-01
        59         5       -1.304594e+00
        60         5        2.633848e-01
        61         5       -8.328945e-01
        62         5       -6.050911e-01
        63         5       -3.123577e-01
        64         5        2.631130e+00
        65         5       -1.418443e+00
        66         5       -8.610350e-01
        67         5        7.636338e-01
        68         5        6.703371e-01
        69         5       -1.390497e-01
        70         5        5.476200e-01
        71         5       -1.169160e+00
        72         5       -8.423744e-01
        73         5       -4.417863e-01
        74         5        9.067917e-02
        75         5        7.388307e-01
        76         5       -1.057508e+00
        77         5       -4.092777e-01
        78         5        6.520895e-01
        79         5        8.883441e-01
        80         5        1.662062e+00
        81         5       -5.648750e-01
        82         5       -1.226197e+00
        83         5        1.019347e+00
        84         5       -5.268738e-01
        85         5       -1.475638e-02
        86         5        8.066903e-01
        87         5        8.053535e-01
        88         5        3.724168e-01
        89         5       -7.805258e-01
        90         5        1.098602e-01
        91         5        5.714725e-01
        92         5        1.618634e+00
        93         5       -7.576956e-01
        94         5       -1.793200e+00
        95         5       -1.380151e+00
        96         5       -1.554604e-01
        97         5        3.594881e-01
        98         5       -1.317363e+00
        99         5        1.549032e+00
       100         5        2.697833e-01
;

param theta:=
    1        4.135517e-01
    2       -1.815971e-01
    3       -1.784304e-03
    4       -1.532753e-01
    5       -1.087677e+00
;
param X_true:=
    1        5.269956e-01
    2        1.770377e-01
    3       -1.917608e+00
    4       -2.621711e-01
    5        2.952404e-01
    6        2.164180e+00
    7       -1.209231e+00
    8       -9.244687e-01
    9        5.896530e-01
   10        3.447894e-01
   11        1.827081e-01
   12       -2.718395e-01
   13       -4.218793e+00
   14        1.845087e+00
   15       -1.585339e+00
   16        1.095089e+00
   17        1.084845e+00
   18        1.033529e+00
   19       -7.784975e-01
   20        1.177079e+00
   21       -1.648165e+00
   22        2.354071e+00
   23       -7.841145e-01
   24        1.102228e+00
   25        7.020286e-01
   26        2.337556e+00
   27        1.760904e+00
   28        1.117863e+00
   29        2.407677e-01
   30       -1.138493e+00
   31        4.783491e-01
   32        1.542451e+00
   33        6.147592e-01
   34        4.940628e-01
   35        7.456896e-01
   36       -1.217356e+00
   37       -9.389200e-01
   38        8.618447e-02
   39        2.430656e+00
   40        1.010559e+00
   41       -4.909365e-01
   42       -1.601970e+00
   43        1.078974e+00
   44       -4.038633e-01
   45        1.222500e+00
   46       -6.605509e-01
   47        1.715828e-01
   48       -3.058586e+00
   49       -8.009965e-01
   50       -1.231006e+00
   51        1.393803e+00
   52       -1.008221e-01
   53       -4.085143e-01
   54        9.121171e-01
   55        3.515060e+00
   56       -1.391363e+00
   57       -1.088178e+00
   58       -9.753114e-01
   59        1.326015e+00
   60        2.590547e-01
   61        9.120086e-01
   62        4.500012e-01
   63        3.206717e-01
   64       -2.591594e+00
   65        1.721469e+00
   66        1.081012e+00
   67       -8.748145e-01
   68       -4.732775e-01
   69        6.315788e-02
   70       -3.925175e-01
   71        1.240713e+00
   72        2.154029e+00
   73        3.278088e-01
   74       -8.151143e-01
   75       -8.156341e-01
   76        1.350458e+00
   77        3.673393e-01
   78       -6.702443e-01
   79       -1.258445e+00
   80       -1.904335e+00
   81        4.106745e-01
   82        9.247696e-01
   83       -1.461950e+00
   84        3.040643e-01
   85       -6.706983e-01
   86       -1.310271e+00
   87       -1.540701e+00
   88       -1.909381e-01
   89       -2.195799e-02
   90        3.560067e-01
   91       -4.050908e-01
   92       -2.187789e+00
   93       -7.113875e-02
   94        1.112529e+00
   95        1.902267e+00
   96       -1.977505e-02
   97       -1.135369e+00
   98        1.372041e+00
   99       -1.204847e+00
  100       -6.805812e-02
;
param X:=
    1       -2.112679e-01
    2        6.576009e-01
    3        7.527775e-01
    4       -2.621711e-01
    5       -2.853049e-01
    6        9.244751e-01
    7        1.743405e+00
    8       -9.244687e-01
    9       -1.133957e-01
   10        8.790190e-01
   11       -2.026446e-01
   12       -2.718395e-01
   13       -7.869345e-01
   14       -1.189263e+00
   15        9.701085e-01
   16       -4.212771e-01
   17       -4.821490e-01
   18       -1.064607e+00
   19        3.184640e-01
   20       -2.595353e-01
   21       -1.174757e+00
   22        9.284219e-01
   23       -7.841145e-01
   24        4.944306e-01
   25        7.028199e-01
   26       -1.541418e+00
   27       -6.246718e-01
   28        9.176178e-01
   29        2.407677e-01
   30        1.355342e+00
   31        2.383098e-01
   32        1.332016e+00
   33        6.147592e-01
   34       -4.096268e-01
   35        7.456896e-01
   36        1.855560e+00
   37       -1.013148e-01
   38        8.618447e-02
   39        8.957072e-02
   40        4.532682e-01
   41       -4.909365e-01
   42       -1.601970e+00
   43       -5.521455e-01
   44       -4.942195e-01
   45        7.727472e-01
   46       -6.605509e-01
   47       -1.062739e+00
   48       -9.384166e-01
   49       -8.009965e-01
   50        9.843938e-01
   51        1.393803e+00
   52       -3.226270e-01
   53       -4.085143e-01
   54       -7.990839e-01
   55       -2.957057e-01
   56       -1.391363e+00
   57       -1.088178e+00
   58       -2.531949e+00
   59        3.116138e-01
   60       -1.889858e+00
   61        9.199340e-01
   62       -8.578751e-01
   63       -1.926068e+00
   64       -2.591594e+00
   65        9.933121e-01
   66        1.081012e+00
   67       -8.748145e-01
   68       -1.039907e+00
   69        6.315788e-02
   70       -3.018911e-01
   71       -4.889478e-01
   72        2.154029e+00
   73       -1.305394e+00
   74       -8.151143e-01
   75       -2.386407e-01
   76        5.924841e-01
   77       -9.686476e-01
   78       -6.702443e-01
   79       -1.258445e+00
   80        7.995236e-01
   81        4.106745e-01
   82        1.305260e-01
   83       -9.155655e-01
   84       -2.322683e-01
   85        3.277966e-01
   86       -6.962278e-01
   87       -1.540701e+00
   88        8.689800e-01
   89       -2.195799e-02
   90        1.810206e+00
   91        1.508770e-01
   92        1.178042e+00
   93        1.908308e+00
   94       -9.931390e-01
   95        1.902267e+00
   96       -1.786717e+00
   97        1.206208e+00
   98       -2.769290e-01
   99       -1.204847e+00
  100       -6.805812e-02
;
param outliervec:=
    1    1
    2    1
    3    1
    4    0
    5    1
    6    1
    7    1
    8    0
    9    1
   10    1
   11    1
   12    0
   13    1
   14    1
   15    1
   16    1
   17    1
   18    1
   19    1
   20    1
   21    1
   22    1
   23    0
   24    1
   25    1
   26    1
   27    1
   28    1
   29    0
   30    1
   31    1
   32    1
   33    0
   34    1
   35    0
   36    1
   37    1
   38    0
   39    1
   40    1
   41    0
   42    0
   43    1
   44    1
   45    1
   46    0
   47    1
   48    1
   49    0
   50    1
   51    0
   52    1
   53    0
   54    1
   55    1
   56    0
   57    0
   58    1
   59    1
   60    1
   61    1
   62    1
   63    1
   64    0
   65    1
   66    0
   67    0
   68    1
   69    0
   70    1
   71    1
   72    0
   73    1
   74    0
   75    1
   76    1
   77    1
   78    0
   79    0
   80    1
   81    0
   82    1
   83    1
   84    1
   85    1
   86    1
   87    0
   88    1
   89    0
   90    1
   91    1
   92    1
   93    1
   94    1
   95    0
   96    1
   97    1
   98    1
   99    0
  100    0
;